% sample profile from Wallis "The mathematics of elections and voting"
prefTemplates = 
[| 1, 3, 4, 2 | 
   2, 4, 1, 3 |
   1, 4, 3, 2 |
   3, 4, 2, 1 |
   4, 3, 1, 2 |
   4, 3, 2, 1  
|];

templateCardinalities = [ 
5,
7,
4,
3,
3,
2
];
